74
0 2 25 62 57 48 19 36 20 56 
17 9 46 34 24 72 65 27 63 51 
11 59 61 28 23 3 50 44 53 5 
41 70 30 64 1 66 38 68 15 69 
32 4 13 8 39 29 31 42 21 55 
7 18 71 35 6 33 22 60 37 14 
58 12 26 54 43 67 10 73 16 49 
52 40 47 45 
